602
1 0 5 579 1 580 1 563 1 564 1 565 1
2 0 5 265 1 477 1 443 1 324 1 508 1
3 0 5 304 1 393 1 84 1 500 1 547 1
4 0 5 277 1 168 1 227 1 491 1 465 1
5 0 5 10 1 539 1 496 1 44 1 495 1
6 0 5 96 1 58 1 489 1 387 1 83 1
7 0 5 126 1 256 1 13 1 117 1 194 1
8 0 5 228 1 167 1 171 1 263 1 266 1
9 0 5 251 1 252 1 163 1 404 1 302 1
10 0 5 5 1 501 1 539 1 44 1 61 1
11 0 5 119 1 506 1 199 1 81 1 70 1
12 0 5 29 1 228 1 8 1 173 1 154 1
13 0 5 126 1 256 1 93 1 7 1 194 1
14 0 5 555 1 362 1 329 1 533 1 358 1
15 0 5 382 1 338 1 361 1 45 1 373 1
16 0 5 306 1 479 1 511 1 413 1 510 1
17 0 5 66 1 132 1 215 1 184 1 191 1
18 0 5 425 1 352 1 525 1 442 1 268 1
19 0 5 69 1 133 1 215 1 66 1 271 1
20 0 5 161 1 49 1 169 1 22 1 210 1
21 0 5 467 1 482 1 519 1 308 1 558 1
22 0 5 195 1 210 1 161 1 49 1 169 1
23 0 5 347 1 181 1 542 1 262 1 399 1
24 0 5 192 1 250 1 47 1 31 1 258 1
25 0 5 213 1 158 1 190 1 526 1 414 1
26 0 5 82 1 433 1 485 1 282 1 36 1
27 0 5 556 1 520 1 224 1 453 1 375 1
28 0 5 470 1 464 1 425 1 481 1 378 1
29 0 5 116 1 12 1 203 1 154 1 37 1
30 0 5 245 1 85 1 64 1 467 1 261 1
31 0 5 250 1 163 1 252 1 258 1 192 1
32 0 5 130 1 470 1 353 1 423 1 193 1
33 0 5 110 1 95 1 172 1 86 1 159 1
34 0 5 535 1 438 1 365 1 375 1 406 1
35 0 5 225 1 222 1 176 1 243 1 267 1
36 0 5 282 1 433 1 418 1 306 1 26 1
37 0 5 116 1 186 1 203 1 180 1 154 1
38 0 5 167 1 173 1 228 1 8 1 171 1
39 0 5 89 1 51 1 273 1 210 1 176 1
40 0 5 511 1 413 1 113 1 16 1 510 1
41 0 5 179 1 120 1 550 1 492 1 544 1
42 0 5 307 1 350 1 416 1 415 1 185 1
43 0 5 408 1 71 1 101 1 99 1 206 1
44 0 5 61 1 495 1 5 1 220 1 10 1
45 0 5 389 1 50 1 15 1 71 1 101 1
46 0 5 216 1 176 1 132 1 51 1 184 1
47 0 5 244 1 95 1 24 1 108 1 192 1
48 0 5 505 1 472 1 261 1 200 1 396 1
49 0 5 516 1 169 1 195 1 161 1 70 1
50 0 5 453 1 45 1 71 1 224 1 157 1
51 0 5 176 1 89 1 39 1 133 1 46 1
52 0 5 302 1 264 1 404 1 121 1 198 1
53 0 5 417 1 181 1 349 1 542 1 23 1
54 0 5 137 1 445 1 64 1 326 1 499 1
55 0 5 364 1 73 1 313 1 396 1 261 1
56 0 5 164 1 165 1 77 1 60 1 528 1
57 0 5 463 1 200 1 367 1 162 1 313 1
58 0 5 83 1 221 1 6 1 96 1 354 1
59 0 5 188 1 559 1 305 1 398 1 445 1
60 0 5 528 1 165 1 411 1 56 1 134 1
61 0 5 44 1 220 1 5 1 235 1 495 1
62 0 5 183 1 248 1 230 1 121 1 264 1
63 0 5 446 1 522 1 334 1 295 1 513 1
64 0 5 137 1 245 1 445 1 54 1 467 1
65 0 5 462 1 553 1 242 1 524 1 521 1
66 0 5 17 1 215 1 19 1 132 1 253 1
67 0 5 196 1 401 1 247 1 444 1 324 1
68 0 5 193 1 314 1 470 1 171 1 266 1
69 0 5 133 1 19 1 271 1 178 1 51 1
70 0 5 187 1 199 1 49 1 11 1 516 1
71 0 5 50 1 45 1 468 1 101 1 389 1
72 0 5 312 1 412 1 527 1 456 1 153 1
73 0 5 313 1 55 1 396 1 364 1 505 1
74 0 5 460 1 124 1 333 1 553 1 309 1
75 0 5 452 1 109 1 314 1 348 1 449 1
76 0 5 532 1 523 1 432 1 98 1 440 1
77 0 5 165 1 53 1 134 1 411 1 164 1
78 0 5 538 1 325 1 312 1 456 1 427 1
79 0 5 326 1 502 1 471 1 543 1 54 1
80 0 5 457 1 138 1 147 1 318 1 60 1
81 0 5 205 1 119 1 11 1 199 1 144 1
82 0 5 485 1 26 1 226 1 360 1 433 1
83 0 5 58 1 221 1 107 1 148 1 6 1
84 0 5 500 1 552 1 363 1 547 1 3 1
85 0 5 467 1 30 1 218 1 99 1 308 1
86 0 5 172 1 198 1 33 1 159 1 264 1
87 0 5 152 1 272 1 255 1 209 1 506 1
88 0 5 164 1 463 1 529 1 103 1 273 1
89 0 5 39 1 51 1 270 1 129 1 133 1
90 0 5 315 1 513 1 337 1 346 1 466 1
91 0 5 293 1 339 1 299 1 251 1 332 1
92 0 5 201 1 236 1 601 1 570 1 564 1
93 0 5 194 1 13 1 192 1 108 1 7 1
94 0 5 319 1 473 1 491 1 465 1 495 1
95 0 5 47 1 33 1 110 1 244 1 250 1
96 0 5 6 1 518 1 58 1 387 1 83 1
97 0 5 400 1 259 1 545 1 173 1 314 1
98 0 5 298 1 515 1 487 1 76 1 112 1
99 0 5 218 1 467 1 241 1 308 1 482 1
100 0 5 378 1 450 1 212 1 481 1 102 1
101 0 5 408 1 389 1 45 1 397 1 71 1
102 0 5 403 1 450 1 481 1 207 1 378 1
103 0 5 529 1 601 1 577 1 563 1 564 1
104 0 5 218 1 174 1 245 1 99 1 85 1
105 0 5 457 1 356 1 211 1 601 1 576 1
106 0 5 320 1 214 1 369 1 217 1 544 1
107 0 5 431 1 148 1 407 1 497 1 83 1
108 0 5 142 1 244 1 13 1 93 1 24 1
109 0 5 75 1 449 1 437 1 481 1 378 1
110 0 5 33 1 254 1 95 1 172 1 159 1
111 0 5 323 1 170 1 274 1 270 1 367 1
112 0 5 427 1 487 1 515 1 494 1 538 1
113 0 5 428 1 40 1 455 1 510 1 413 1
114 0 5 230 1 248 1 393 1 363 1 121 1
115 0 5 439 1 346 1 430 1 285 1 136 1
116 0 5 29 1 37 1 203 1 154 1 186 1
117 0 5 237 1 256 1 192 1 7 1 539 1
118 0 5 429 1 390 1 295 1 480 1 140 1
119 0 5 11 1 81 1 506 1 199 1 70 1
120 0 5 493 1 41 1 492 1 550 1 179 1
121 0 5 264 1 248 1 198 1 62 1 52 1
122 0 5 490 1 451 1 139 1 219 1 275 1
123 0 5 182 1 143 1 238 1 407 1 510 1
124 0 5 74 1 435 1 521 1 460 1 309 1
125 0 5 258 1 163 1 539 1 252 1 339 1
126 0 5 256 1 7 1 13 1 117 1 192 1
127 0 5 355 1 269 1 436 1 223 1 474 1
128 0 5 240 1 560 1 473 1 491 1 227 1
129 0 5 178 1 270 1 89 1 323 1 162 1
130 0 5 32 1 434 1 392 1 423 1 469 1
131 0 5 554 1 442 1 294 1 377 1 322 1
132 0 5 17 1 184 1 216 1 215 1 46 1
133 0 5 69 1 19 1 51 1 89 1 46 1
134 0 5 411 1 219 1 275 1 528 1 77 1
135 0 5 534 1 232 1 278 1 337 1 309 1
136 0 5 285 1 430 1 521 1 439 1 524 1
137 0 5 54 1 64 1 245 1 445 1 326 1
138 0 5 457 1 80 1 318 1 211 1 147 1
139 0 5 399 1 451 1 122 1 262 1 417 1
140 0 5 247 1 390 1 429 1 480 1 118 1
141 0 5 537 1 343 1 281 1 334 1 231 1
142 0 5 108 1 244 1 47 1 13 1 24 1
143 0 5 182 1 123 1 497 1 431 1 148 1
144 0 5 205 1 202 1 145 1 81 1 199 1
145 0 5 160 1 253 1 202 1 144 1 267 1
146 0 5 570 1 358 1 362 1 448 1 356 1
147 0 5 457 1 80 1 164 1 138 1 60 1
148 0 5 431 1 107 1 497 1 182 1 143 1
149 0 5 297 1 207 1 514 1 476 1 403 1
150 0 5 558 1 351 1 459 1 482 1 519 1
151 0 5 530 1 321 1 155 1 391 1 185 1
152 0 5 87 1 272 1 255 1 490 1 209 1
153 0 5 229 1 527 1 412 1 260 1 456 1
154 0 5 263 1 278 1 116 1 37 1 29 1
155 0 5 180 1 151 1 321 1 232 1 391 1
156 0 5 518 1 517 1 233 1 109 1 387 1
157 0 5 224 1 27 1 50 1 468 1 556 1
158 0 5 190 1 25 1 213 1 183 1 414 1
159 0 5 172 1 250 1 86 1 33 1 95 1
160 0 5 145 1 253 1 202 1 144 1 66 1
161 0 5 169 1 195 1 49 1 22 1 20 1
162 0 5 367 1 274 1 111 1 270 1 323 1
163 0 5 125 1 31 1 258 1 9 1 252 1
164 0 5 56 1 88 1 165 1 463 1 77 1
165 0 5 77 1 56 1 164 1 60 1 528 1
166 0 5 268 1 352 1 464 1 322 1 551 1
167 0 5 38 1 173 1 8 1 266 1 314 1
168 0 5 557 1 4 1 465 1 277 1 288 1
169 0 5 161 1 49 1 516 1 195 1 20 1
170 0 5 323 1 111 1 493 1 217 1 162 1
171 0 5 8 1 193 1 392 1 68 1 266 1
172 0 5 159 1 86 1 33 1 95 1 198 1
173 0 5 38 1 167 1 545 1 228 1 259 1
174 0 5 463 1 529 1 103 1 236 1 104 1
175 0 5 436 1 332 1 509 1 342 1 269 1
176 0 5 51 1 35 1 222 1 46 1 216 1
177 0 5 468 1 92 1 268 1 157 1 224 1
178 0 5 129 1 271 1 133 1 89 1 323 1
179 0 5 41 1 492 1 120 1 550 1 544 1
180 0 5 155 1 186 1 37 1 203 1 232 1
181 0 5 23 1 347 1 542 1 53 1 349 1
182 0 5 143 1 123 1 431 1 497 1 148 1
183 0 5 62 1 414 1 213 1 158 1 121 1
184 0 5 191 1 132 1 216 1 17 1 46 1
185 0 5 231 1 530 1 391 1 343 1 537 1
186 0 5 203 1 180 1 37 1 116 1 29 1
187 0 5 70 1 516 1 372 1 49 1 199 1
188 0 5 59 1 398 1 559 1 371 1 305 1
189 0 5 238 1 512 1 483 1 510 1 208 1
190 0 5 254 1 158 1 25 1 526 1 414 1
191 0 5 267 1 184 1 253 1 225 1 35 1
192 0 5 24 1 194 1 117 1 258 1 31 1
193 0 5 68 1 266 1 171 1 314 1 392 1
194 0 5 93 1 192 1 13 1 7 1 117 1
195 0 5 22 1 49 1 161 1 169 1 210 1
196 0 5 67 1 444 1 247 1 486 1 422 1
197 0 5 220 1 501 1 235 1 237 1 61 1
198 0 5 86 1 264 1 121 1 302 1 52 1
199 0 5 70 1 11 1 81 1 187 1 243 1
200 0 5 505 1 472 1 48 1 274 1 217 1
201 0 5 92 1 236 1 463 1 177 1 268 1
202 0 5 144 1 145 1 253 1 199 1 160 1
203 0 5 186 1 116 1 37 1 29 1 180 1
204 0 5 463 1 529 1 103 1 236 1 174 1
205 0 5 81 1 144 1 199 1 119 1 11 1
206 0 5 229 1 408 1 246 1 153 1 101 1
207 0 5 540 1 403 1 149 1 102 1 357 1
208 0 5 238 1 317 1 257 1 345 1 280 1
209 0 5 255 1 347 1 372 1 87 1 181 1
210 0 5 22 1 273 1 39 1 195 1 243 1
211 0 5 105 1 457 1 223 1 601 1 356 1
212 0 5 327 1 450 1 149 1 102 1 425 1
213 0 5 25 1 158 1 414 1 183 1 62 1
214 0 5 472 1 106 1 369 1 261 1 502 1
215 0 5 66 1 19 1 132 1 17 1 133 1
216 0 5 46 1 184 1 132 1 176 1 35 1
217 0 5 544 1 274 1 320 1 106 1 505 1
218 0 5 99 1 467 1 241 1 104 1 85 1
219 0 5 275 1 411 1 134 1 122 1 528 1
220 0 5 235 1 197 1 61 1 44 1 501 1
221 0 5 83 1 58 1 354 1 317 1 15 1
222 0 5 35 1 243 1 176 1 225 1 210 1
223 0 5 269 1 571 1 211 1 127 1 355 1
224 0 5 157 1 27 1 50 1 556 1 453 1
225 0 5 267 1 35 1 243 1 191 1 222 1
226 0 5 82 1 360 1 485 1 26 1 40 1
227 0 5 473 1 491 1 4 1 240 1 277 1
228 0 5 12 1 8 1 173 1 38 1 154 1
229 0 5 206 1 153 1 412 1 527 1 260 1
230 0 5 393 1 114 1 62 1 84 1 363 1
231 0 5 391 1 185 1 537 1 343 1 141 1
232 0 5 278 1 135 1 37 1 155 1 180 1
233 0 5 311 1 374 1 156 1 449 1 518 1
234 0 5 330 1 414 1 300 1 552 1 324 1
235 0 5 220 1 560 1 197 1 61 1 44 1
236 0 5 601 1 92 1 578 1 563 1 564 1
237 0 5 117 1 501 1 197 1 10 1 5 1
238 0 5 208 1 189 1 123 1 143 1 512 1
239 0 5 257 1 246 1 345 1 408 1 208 1
240 0 5 128 1 272 1 227 1 473 1 491 1
241 0 5 218 1 99 1 467 1 85 1 245 1
242 0 5 65 1 353 1 279 1 462 1 524 1
243 0 5 222 1 225 1 35 1 199 1 176 1
244 0 5 47 1 142 1 108 1 95 1 24 1
245 0 5 64 1 30 1 396 1 137 1 364 1
246 0 5 239 1 206 1 408 1 257 1 260 1
247 0 5 140 1 67 1 401 1 196 1 458 1
248 0 5 121 1 62 1 114 1 264 1 52 1
249 0 5 300 1 330 1 526 1 234 1 414 1
250 0 5 24 1 31 1 159 1 258 1 95 1
251 0 5 404 1 9 1 302 1 91 1 252 1
252 0 5 539 1 9 1 125 1 163 1 388 1
253 0 5 160 1 145 1 202 1 191 1 267 1
254 0 5 190 1 110 1 526 1 25 1 158 1
255 0 5 209 1 347 1 23 1 152 1 87 1
256 0 5 126 1 7 1 13 1 117 1 192 1
257 0 5 345 1 239 1 370 1 208 1 246 1
258 0 5 125 1 192 1 163 1 31 1 250 1
259 0 5 545 1 97 1 517 1 173 1 400 1
260 0 5 246 1 370 1 153 1 386 1 229 1
261 0 5 502 1 396 1 214 1 79 1 472 1
262 0 5 181 1 417 1 23 1 139 1 399 1
263 0 5 154 1 8 1 434 1 392 1 309 1
264 0 5 198 1 302 1 121 1 52 1 62 1
265 0 5 2 1 477 1 443 1 508 1 324 1
266 0 5 392 1 193 1 314 1 8 1 171 1
267 0 5 191 1 225 1 35 1 253 1 243 1
268 0 5 166 1 353 1 464 1 573 1 576 1
269 0 5 223 1 601 1 564 1 563 1 573 1
270 0 5 367 1 129 1 323 1 89 1 111 1
271 0 5 178 1 69 1 19 1 170 1 133 1
272 0 5 87 1 240 1 152 1 506 1 255 1
273 0 5 463 1 39 1 210 1 22 1 367 1
274 0 5 217 1 111 1 505 1 162 1 320 1
275 0 5 219 1 134 1 411 1 122 1 340 1
276 0 5 498 1 405 1 495 1 560 1 44 1
277 0 5 4 1 340 1 227 1 168 1 503 1
278 0 5 232 1 154 1 135 1 37 1 534 1
279 0 5 484 1 242 1 65 1 524 1 462 1
280 0 5 497 1 317 1 208 1 504 1 431 1
281 0 5 466 1 537 1 141 1 337 1 90 1
282 0 5 36 1 433 1 26 1 306 1 511 1
283 0 5 543 1 296 1 499 1 395 1 326 1
284 0 5 325 1 351 1 519 1 459 1 150 1
285 0 5 136 1 430 1 394 1 536 1 524 1
286 0 5 289 1 297 1 301 1 514 1 149 1
287 0 5 421 1 383 1 441 1 402 1 307 1
288 0 5 342 1 503 1 557 1 340 1 436 1
289 0 5 301 1 286 1 327 1 425 1 297 1
290 0 5 388 1 496 1 335 1 339 1 495 1
291 0 5 401 1 500 1 547 1 3 1 363 1
292 0 5 310 1 334 1 295 1 341 1 118 1
293 0 5 91 1 332 1 503 1 299 1 339 1
294 0 5 442 1 352 1 131 1 554 1 525 1
295 0 5 458 1 446 1 292 1 390 1 118 1
296 0 5 283 1 395 1 559 1 499 1 543 1
297 0 5 514 1 149 1 286 1 212 1 289 1
298 0 5 487 1 98 1 515 1 112 1 427 1
299 0 5 335 1 384 1 91 1 388 1 293 1
300 0 5 249 1 330 1 234 1 443 1 414 1
301 0 5 289 1 327 1 286 1 425 1 450 1
302 0 5 264 1 52 1 404 1 198 1 251 1
303 0 5 454 1 507 1 376 1 344 1 380 1
304 0 5 3 1 393 1 480 1 429 1 500 1
305 0 5 445 1 499 1 559 1 59 1 54 1
306 0 5 16 1 511 1 331 1 479 1 36 1
307 0 5 42 1 350 1 441 1 287 1 561 1
308 0 5 482 1 467 1 21 1 558 1 150 1
309 0 5 534 1 434 1 124 1 74 1 130 1
310 0 5 341 1 410 1 292 1 334 1 295 1
311 0 5 374 1 233 1 476 1 387 1 540 1
312 0 5 72 1 412 1 527 1 494 1 456 1
313 0 5 73 1 55 1 505 1 396 1 472 1
314 0 5 400 1 266 1 68 1 193 1 75 1
315 0 5 90 1 466 1 337 1 346 1 439 1
316 0 5 395 1 461 1 283 1 440 1 296 1
317 0 5 504 1 280 1 208 1 221 1 397 1
318 0 5 457 1 138 1 105 1 211 1 80 1
319 0 5 94 1 384 1 335 1 465 1 290 1
320 0 5 106 1 505 1 217 1 274 1 544 1
321 0 5 151 1 530 1 391 1 155 1 185 1
322 0 5 352 1 442 1 131 1 425 1 377 1
323 0 5 111 1 170 1 270 1 129 1 162 1
324 0 5 552 1 477 1 401 1 67 1 234 1
325 0 5 284 1 78 1 538 1 351 1 459 1
326 0 5 79 1 543 1 54 1 283 1 499 1
327 0 5 301 1 289 1 425 1 212 1 450 1
328 0 5 406 1 514 1 377 1 336 1 365 1
329 0 5 14 1 63 1 522 1 555 1 362 1
330 0 5 249 1 234 1 526 1 300 1 414 1
331 0 5 418 1 488 1 479 1 306 1 548 1
332 0 5 557 1 293 1 384 1 335 1 91 1
333 0 5 469 1 460 1 74 1 553 1 124 1
334 0 5 310 1 522 1 292 1 446 1 63 1
335 0 5 290 1 384 1 299 1 319 1 332 1
336 0 5 535 1 365 1 406 1 328 1 489 1
337 0 5 315 1 90 1 466 1 281 1 346 1
338 0 5 382 1 15 1 453 1 361 1 556 1
339 0 5 388 1 290 1 91 1 293 1 335 1
340 0 5 277 1 288 1 503 1 342 1 275 1
341 0 5 410 1 310 1 292 1 334 1 415 1
342 0 5 288 1 436 1 509 1 340 1 557 1
343 0 5 141 1 410 1 416 1 231 1 537 1
344 0 5 475 1 507 1 376 1 461 1 303 1
345 0 5 257 1 370 1 239 1 208 1 246 1
346 0 5 513 1 90 1 315 1 115 1 419 1
347 0 5 209 1 23 1 181 1 255 1 372 1
348 0 5 517 1 452 1 449 1 75 1 109 1
349 0 5 53 1 181 1 23 1 417 1 161 1
350 0 5 416 1 415 1 42 1 307 1 561 1
351 0 5 519 1 459 1 558 1 150 1 284 1
352 0 5 322 1 294 1 166 1 18 1 425 1
353 0 5 32 1 423 1 242 1 268 1 470 1
354 0 5 373 1 361 1 221 1 382 1 15 1
355 0 5 127 1 269 1 223 1 436 1 105 1
356 0 5 105 1 601 1 577 1 563 1 564 1
357 0 5 437 1 481 1 540 1 378 1 207 1
358 0 5 555 1 14 1 146 1 362 1 379 1
359 0 5 386 1 455 1 428 1 370 1 413 1
360 0 5 226 1 549 1 409 1 113 1 485 1
361 0 5 382 1 373 1 354 1 15 1 338 1
362 0 5 14 1 555 1 358 1 304 1 329 1
363 0 5 84 1 547 1 552 1 230 1 500 1
364 0 5 55 1 73 1 396 1 245 1 313 1
365 0 5 535 1 336 1 34 1 406 1 328 1
366 0 5 484 1 536 1 394 1 358 1 146 1
367 0 5 162 1 270 1 111 1 274 1 323 1
368 0 5 441 1 422 1 561 1 415 1 307 1
369 0 5 376 1 214 1 472 1 106 1 544 1
370 0 5 386 1 345 1 257 1 260 1 359 1
371 0 5 398 1 424 1 440 1 188 1 284 1
372 0 5 506 1 209 1 187 1 181 1 347 1
373 0 5 354 1 361 1 382 1 15 1 221 1
374 0 5 311 1 233 1 449 1 540 1 437 1
375 0 5 520 1 438 1 27 1 556 1 338 1
376 0 5 369 1 344 1 544 1 303 1 507 1
377 0 5 554 1 328 1 131 1 406 1 442 1
378 0 5 481 1 100 1 357 1 102 1 109 1
379 0 5 533 1 513 1 555 1 522 1 358 1
380 0 5 381 1 454 1 420 1 461 1 303 1
381 0 5 380 1 420 1 432 1 454 1 532 1
382 0 5 361 1 338 1 15 1 373 1 354 1
383 0 5 287 1 421 1 402 1 486 1 441 1
384 0 5 465 1 335 1 299 1 319 1 332 1
385 0 5 494 1 409 1 549 1 427 1 113 1
386 0 5 370 1 359 1 455 1 345 1 260 1
387 0 5 426 1 518 1 311 1 96 1 489 1
388 0 5 496 1 290 1 339 1 299 1 252 1
389 0 5 45 1 397 1 408 1 504 1 101 1
390 0 5 140 1 295 1 118 1 480 1 446 1
391 0 5 231 1 185 1 321 1 530 1 537 1
392 0 5 266 1 434 1 130 1 171 1 8 1
393 0 5 230 1 3 1 84 1 304 1 547 1
394 0 5 285 1 521 1 524 1 439 1 430 1
395 0 5 316 1 296 1 440 1 283 1 543 1
396 0 5 261 1 245 1 73 1 313 1 364 1
397 0 5 504 1 389 1 317 1 408 1 101 1
398 0 5 371 1 188 1 424 1 440 1 559 1
399 0 5 139 1 417 1 23 1 451 1 262 1
400 0 5 97 1 314 1 266 1 167 1 259 1
401 0 5 291 1 67 1 247 1 324 1 500 1
402 0 5 478 1 383 1 287 1 421 1 486 1
403 0 5 102 1 207 1 149 1 540 1 481 1
404 0 5 251 1 302 1 52 1 9 1 264 1
405 0 5 560 1 498 1 276 1 495 1 44 1
406 0 5 328 1 336 1 377 1 365 1 131 1
407 0 5 479 1 107 1 123 1 331 1 16 1
408 0 5 389 1 101 1 246 1 206 1 397 1
409 0 5 549 1 385 1 360 1 112 1 113 1
410 0 5 341 1 310 1 343 1 415 1 416 1
411 0 5 528 1 219 1 134 1 275 1 60 1
412 0 5 72 1 456 1 312 1 229 1 527 1
413 0 5 510 1 40 1 16 1 483 1 189 1
414 0 5 213 1 234 1 183 1 25 1 330 1
415 0 5 416 1 350 1 410 1 561 1 341 1
416 0 5 415 1 350 1 343 1 410 1 42 1
417 0 5 399 1 53 1 542 1 262 1 23 1
418 0 5 331 1 548 1 488 1 546 1 433 1
419 0 5 439 1 430 1 346 1 285 1 379 1
420 0 5 550 1 381 1 380 1 454 1 376 1
421 0 5 287 1 383 1 441 1 402 1 486 1
422 0 5 441 1 368 1 561 1 486 1 383 1
423 0 5 130 1 353 1 32 1 333 1 470 1
424 0 5 371 1 515 1 440 1 398 1 325 1
425 0 5 327 1 301 1 450 1 289 1 322 1
426 0 5 387 1 476 1 489 1 311 1 540 1
427 0 5 112 1 538 1 494 1 385 1 78 1
428 0 5 113 1 455 1 359 1 386 1 370 1
429 0 5 480 1 118 1 140 1 390 1 295 1
430 0 5 136 1 285 1 439 1 394 1 419 1
431 0 5 148 1 107 1 497 1 143 1 182 1
432 0 5 523 1 532 1 76 1 381 1 316 1
433 0 5 546 1 26 1 36 1 282 1 418 1
434 0 5 309 1 263 1 392 1 130 1 171 1
435 0 5 124 1 521 1 439 1 553 1 346 1
436 0 5 342 1 509 1 288 1 175 1 127 1
437 0 5 449 1 357 1 481 1 109 1 374 1
438 0 5 375 1 34 1 525 1 556 1 520 1
439 0 5 136 1 315 1 435 1 115 1 419 1
440 0 5 424 1 371 1 395 1 398 1 316 1
441 0 5 368 1 422 1 421 1 287 1 383 1
442 0 5 294 1 322 1 554 1 131 1 377 1
443 0 5 508 1 447 1 2 1 265 1 300 1
444 0 5 196 1 486 1 67 1 531 1 447 1
445 0 5 305 1 499 1 54 1 64 1 137 1
446 0 5 63 1 295 1 334 1 390 1 522 1
447 0 5 508 1 531 1 444 1 443 1 541 1
448 0 5 356 1 105 1 211 1 393 1 457 1
449 0 5 452 1 437 1 374 1 348 1 109 1
450 0 5 551 1 102 1 425 1 212 1 100 1
451 0 5 490 1 139 1 122 1 23 1 399 1
452 0 5 75 1 449 1 348 1 109 1 517 1
453 0 5 50 1 338 1 520 1 27 1 15 1
454 0 5 303 1 380 1 507 1 420 1 376 1
455 0 5 359 1 428 1 386 1 113 1 413 1
456 0 5 412 1 312 1 459 1 72 1 351 1
457 0 5 105 1 211 1 601 1 356 1 563 1
458 0 5 561 1 295 1 247 1 390 1 140 1
459 0 5 351 1 150 1 456 1 284 1 325 1
460 0 5 74 1 333 1 553 1 124 1 309 1
461 0 5 344 1 475 1 507 1 316 1 543 1
462 0 5 524 1 65 1 521 1 536 1 242 1
463 0 5 529 1 601 1 164 1 103 1 564 1
464 0 5 28 1 166 1 551 1 470 1 268 1
465 0 5 384 1 557 1 168 1 319 1 491 1
466 0 5 281 1 315 1 522 1 337 1 90 1
467 0 5 85 1 21 1 308 1 99 1 218 1
468 0 5 177 1 71 1 157 1 224 1 27 1
469 0 5 333 1 353 1 32 1 423 1 242 1
470 0 5 32 1 28 1 68 1 193 1 314 1
471 0 5 475 1 502 1 79 1 214 1 344 1
472 0 5 214 1 369 1 200 1 505 1 313 1
473 0 5 491 1 94 1 227 1 240 1 128 1
474 0 5 457 1 269 1 223 1 509 1 436 1
475 0 5 471 1 344 1 461 1 543 1 369 1
476 0 5 426 1 540 1 311 1 149 1 489 1
477 0 5 265 1 324 1 508 1 2 1 552 1
478 0 5 402 1 541 1 486 1 531 1 444 1
479 0 5 407 1 16 1 331 1 306 1 418 1
480 0 5 429 1 329 1 390 1 118 1 140 1
481 0 5 378 1 357 1 102 1 437 1 109 1
482 0 5 308 1 558 1 21 1 519 1 150 1
483 0 5 512 1 510 1 189 1 413 1 370 1
484 0 5 279 1 366 1 601 1 564 1 565 1
485 0 5 82 1 26 1 226 1 360 1 511 1
486 0 5 444 1 478 1 541 1 196 1 531 1
487 0 5 298 1 549 1 98 1 515 1 112 1
488 0 5 548 1 546 1 418 1 331 1 433 1
489 0 5 426 1 514 1 535 1 476 1 336 1
490 0 5 451 1 122 1 152 1 340 1 277 1
491 0 5 473 1 227 1 4 1 465 1 94 1
492 0 5 179 1 544 1 120 1 41 1 376 1
493 0 5 120 1 544 1 170 1 217 1 369 1
494 0 5 385 1 427 1 312 1 538 1 112 1
495 0 5 44 1 276 1 496 1 290 1 498 1
496 0 5 388 1 290 1 5 1 495 1 339 1
497 0 5 280 1 148 1 143 1 431 1 182 1
498 0 5 276 1 405 1 495 1 560 1 319 1
499 0 5 283 1 445 1 305 1 543 1 296 1
500 0 5 84 1 291 1 552 1 3 1 547 1
501 0 5 10 1 197 1 237 1 539 1 220 1
502 0 5 261 1 79 1 471 1 214 1 326 1
503 0 5 288 1 557 1 340 1 293 1 277 1
504 0 5 317 1 397 1 389 1 257 1 408 1
505 0 5 320 1 274 1 200 1 48 1 313 1
506 0 5 372 1 11 1 272 1 119 1 87 1
507 0 5 303 1 344 1 454 1 461 1 376 1
508 0 5 443 1 447 1 477 1 265 1 324 1
509 0 5 342 1 436 1 503 1 288 1 175 1
510 0 5 483 1 512 1 413 1 189 1 16 1
511 0 5 40 1 306 1 16 1 413 1 282 1
512 0 5 483 1 510 1 189 1 238 1 413 1
513 0 5 346 1 522 1 379 1 439 1 533 1
514 0 5 297 1 328 1 489 1 286 1 149 1
515 0 5 98 1 424 1 298 1 487 1 112 1
516 0 5 187 1 49 1 169 1 70 1 349 1
517 0 5 348 1 156 1 259 1 545 1 75 1
518 0 5 156 1 96 1 387 1 233 1 311 1
519 0 5 558 1 351 1 482 1 284 1 21 1
520 0 5 375 1 27 1 556 1 453 1 338 1
521 0 5 136 1 124 1 435 1 462 1 394 1
522 0 5 63 1 466 1 533 1 334 1 513 1
523 0 5 76 1 532 1 432 1 440 1 316 1
524 0 5 462 1 536 1 394 1 521 1 136 1
525 0 5 438 1 294 1 554 1 377 1 131 1
526 0 5 254 1 330 1 25 1 249 1 414 1
527 0 5 72 1 312 1 229 1 153 1 412 1
528 0 5 411 1 60 1 134 1 219 1 165 1
529 0 5 103 1 463 1 563 1 564 1 565 1
530 0 5 151 1 321 1 185 1 391 1 343 1
531 0 5 541 1 447 1 444 1 478 1 486 1
532 0 5 76 1 523 1 432 1 316 1 381 1
533 0 5 379 1 522 1 14 1 315 1 63 1
534 0 5 135 1 309 1 435 1 434 1 337 1
535 0 5 365 1 34 1 336 1 489 1 328 1
536 0 5 524 1 462 1 521 1 366 1 285 1
537 0 5 141 1 281 1 231 1 343 1 466 1
538 0 5 78 1 427 1 325 1 494 1 112 1
539 0 5 5 1 125 1 252 1 299 1 163 1
540 0 5 207 1 476 1 357 1 374 1 149 1
541 0 5 531 1 478 1 486 1 444 1 447 1
542 0 5 181 1 417 1 23 1 53 1 399 1
543 0 5 283 1 326 1 499 1 296 1 461 1
544 0 5 217 1 493 1 492 1 106 1 369 1
545 0 5 259 1 97 1 173 1 517 1 400 1
546 0 5 433 1 548 1 488 1 418 1 331 1
547 0 5 84 1 552 1 363 1 500 1 291 1
548 0 5 488 1 546 1 418 1 331 1 433 1
549 0 5 409 1 360 1 487 1 385 1 112 1
550 0 5 420 1 41 1 120 1 376 1 179 1
551 0 5 450 1 425 1 464 1 212 1 166 1
552 0 5 324 1 500 1 84 1 547 1 363 1
553 0 5 65 1 333 1 435 1 521 1 462 1
554 0 5 377 1 131 1 442 1 294 1 525 1
555 0 5 14 1 358 1 533 1 379 1 362 1
556 0 5 27 1 520 1 375 1 224 1 338 1
557 0 5 168 1 332 1 465 1 288 1 503 1
558 0 5 519 1 482 1 351 1 150 1 21 1
559 0 5 59 1 305 1 296 1 188 1 499 1
560 0 5 405 1 235 1 128 1 498 1 276 1
561 0 5 458 1 368 1 422 1 247 1 415 1
562 0 5 579 1 580 1 563 1 564 1 565 1
563 0 5 579 1 580 1 563 1 564 1 565 1
564 0 5 579 1 580 1 563 1 564 1 565 1
565 0 5 579 1 580 1 563 1 564 1 565 1
566 0 5 579 1 580 1 563 1 564 1 565 1
567 0 5 579 1 580 1 563 1 564 1 565 1
568 0 5 579 1 580 1 563 1 564 1 565 1
569 0 5 579 1 580 1 563 1 564 1 565 1
570 0 5 579 1 580 1 563 1 564 1 565 1
571 0 5 579 1 580 1 563 1 564 1 565 1
572 0 5 579 1 580 1 563 1 564 1 565 1
573 0 5 579 1 580 1 563 1 564 1 565 1
574 0 5 579 1 580 1 563 1 564 1 565 1
575 0 5 579 1 580 1 563 1 564 1 565 1
576 0 5 579 1 580 1 563 1 564 1 565 1
577 0 5 579 1 580 1 563 1 564 1 565 1
578 0 5 579 1 580 1 563 1 564 1 565 1
579 0 5 579 1 580 1 563 1 564 1 565 1
580 0 5 579 1 580 1 563 1 564 1 565 1
581 0 5 579 1 580 1 563 1 564 1 565 1
582 0 5 579 1 580 1 563 1 564 1 565 1
583 0 5 579 1 580 1 563 1 564 1 565 1
584 0 5 579 1 580 1 563 1 564 1 565 1
585 0 5 579 1 580 1 563 1 564 1 565 1
586 0 5 579 1 580 1 563 1 564 1 565 1
587 0 5 579 1 580 1 563 1 564 1 565 1
588 0 5 579 1 580 1 563 1 564 1 565 1
589 0 5 579 1 580 1 563 1 564 1 565 1
590 0 5 579 1 580 1 563 1 564 1 565 1
591 0 5 579 1 580 1 563 1 564 1 565 1
592 0 5 579 1 580 1 563 1 564 1 565 1
593 0 5 579 1 580 1 563 1 564 1 565 1
594 0 5 579 1 580 1 563 1 564 1 565 1
595 0 5 579 1 580 1 563 1 564 1 565 1
596 0 5 579 1 580 1 563 1 564 1 565 1
597 0 5 579 1 580 1 563 1 564 1 565 1
598 0 5 579 1 580 1 563 1 564 1 565 1
599 0 5 579 1 580 1 563 1 564 1 565 1
600 0 5 579 1 580 1 563 1 564 1 565 1
601 0 5 579 1 580 1 563 1 564 1 565 1
602 0 5 579 1 580 1 563 1 564 1 565 1
-1
EOF
